FoodBank_SmallCase4.lp
\ Model Food_Bank
\ LP format - for model browsing. Use MPS format to capture full model detail.
Minimize
  1.533 dt_1_72_28 + 1.533 dt_1_72_19 + 1.533 dt_1_199_28
   + 1.533 dt_1_199_19 + 1.533 dt_1_198_28 + 1.533 dt_1_198_19
   + 1.533 dt_1_202_28 + 1.533 dt_1_202_19 + 1.533 dt_1_47_28
   + 1.533 dt_1_47_19 + 1.533 dt_1_197_28 + 1.533 dt_1_197_19 + [
   0.0239266666666667 aFP_1_72 * fFP_1_72
   + 0.0239266666666667 aFP_1_199 * fFP_1_199
   + 0.0239266666666667 aFP_1_198 * fFP_1_198
   + 0.0239266666666667 aFP_1_202 * fFP_1_202
   + 0.0239266666666667 aFP_1_47 * fFP_1_47
   + 0.0239266666666667 aFP_1_197 * fFP_1_197 + 239.0024 nT_1_72 * fFP_1_72
   + 55.88613333333333 nT_1_199 * fFP_1_199 + 24.9704 nT_1_198 * fFP_1_198
   + 36.86106666666667 nT_1_202 * fFP_1_202
   + 38.05013333333333 nT_1_47 * fFP_1_47
   + 47.56266666666667 nT_1_197 * fFP_1_197 + 0.34966 dt_72_28 * dt_1_72_28
   + 0.34966 dt_72_19 * dt_1_72_19 + 0.34966 dt_199_28 * dt_1_199_28
   + 0.34966 dt_199_19 * dt_1_199_19 + 0.34966 dt_198_28 * dt_1_198_28
   + 0.34966 dt_198_19 * dt_1_198_19 + 0.34966 dt_202_28 * dt_1_202_28
   + 0.34966 dt_202_19 * dt_1_202_19 + 0.34966 dt_47_28 * dt_1_47_28
   + 0.34966 dt_47_19 * dt_1_47_19 + 0.34966 dt_197_28 * dt_1_197_28
   + 0.34966 dt_197_19 * dt_1_197_19 ] / 2 
Subject To
 F1_sendsFood_Pj: x_1_72 + x_1_199 + x_1_198 + x_1_202 + x_1_47 + x_1_197
   >= 1
 P72_receiveFood_Fi: x_1_72 <= 1
 P199_receiveFood_Fi: x_1_199 <= 1
 P198_receiveFood_Fi: x_1_198 <= 1
 P202_receiveFood_Fi: x_1_202 <= 1
 P47_receiveFood_Fi: x_1_47 <= 1
 P197_receiveFood_Fi: x_1_197 <= 1
 P72_sendsFood_Zk: y_72_28 + y_72_19 <= 1
 P199_sendsFood_Zk: y_199_28 + y_199_19 <= 1
 P198_sendsFood_Zk: y_198_28 + y_198_19 <= 1
 P202_sendsFood_Zk: y_202_28 + y_202_19 <= 1
 P47_sendsFood_Zk: y_47_28 + y_47_19 <= 1
 P197_sendsFood_Zk: y_197_28 + y_197_19 <= 1
 Z28_receiveFood_Pj: y_72_28 + y_199_28 + y_198_28 + y_202_28 + y_47_28
   + y_197_28 >= 1
 Z19_receiveFood_Pj: y_72_19 + y_199_19 + y_198_19 + y_202_19 + y_47_19
   + y_197_19 >= 1
 R15: - 24000 y_72_28 + dt_72_28 <= 0
 R16: - 24000 y_72_19 + dt_72_19 <= 0
 R17: - 24000 y_199_28 + dt_199_28 <= 0
 R18: - 24000 y_199_19 + dt_199_19 <= 0
 R19: - 24000 y_198_28 + dt_198_28 <= 0
 R20: - 24000 y_198_19 + dt_198_19 <= 0
 R21: - 24000 y_202_28 + dt_202_28 <= 0
 R22: - 24000 y_202_19 + dt_202_19 <= 0
 R23: - 24000 y_47_28 + dt_47_28 <= 0
 R24: - 24000 y_47_19 + dt_47_19 <= 0
 R25: - 24000 y_197_28 + dt_197_28 <= 0
 R26: - 24000 y_197_19 + dt_197_19 <= 0
 R27: - 15126 x_1_72 + aFP_1_72 <= 0
 R28: - 14382 x_1_199 + aFP_1_199 <= 0
 R29: - 30365 x_1_198 + aFP_1_198 <= 0
 R30: - 5683 x_1_202 + aFP_1_202 <= 0
 R31: - 37994 x_1_47 + aFP_1_47 <= 0
 R32: - 18193 x_1_197 + aFP_1_197 <= 0
 R33: aFP_1_72 + aFP_1_199 + aFP_1_198 + aFP_1_202 + aFP_1_47 + aFP_1_197
   <= 1.9460356500000004e+10
 R34: aFP_1_72 - aPZ_72_28 - aPZ_72_19 = 0
 R35: aFP_1_199 - aPZ_199_28 - aPZ_199_19 = 0
 R36: aFP_1_198 - aPZ_198_28 - aPZ_198_19 = 0
 R37: aFP_1_202 - aPZ_202_28 - aPZ_202_19 = 0
 R38: aFP_1_47 - aPZ_47_28 - aPZ_47_19 = 0
 R39: aFP_1_197 - aPZ_197_28 - aPZ_197_19 = 0
 R40: - 6.36942215e+08 y_72_28 + aPZ_72_28 <= 0
 R41: - 6.36942215e+08 y_72_19 + aPZ_72_19 <= 0
 R42: - 6.36942215e+08 y_199_28 + aPZ_199_28 <= 0
 R43: - 6.36942215e+08 y_199_19 + aPZ_199_19 <= 0
 R44: - 6.36942215e+08 y_198_28 + aPZ_198_28 <= 0
 R45: - 6.36942215e+08 y_198_19 + aPZ_198_19 <= 0
 R46: - 6.36942215e+08 y_202_28 + aPZ_202_28 <= 0
 R47: - 6.36942215e+08 y_202_19 + aPZ_202_19 <= 0
 R48: - 6.36942215e+08 y_47_28 + aPZ_47_28 <= 0
 R49: - 6.36942215e+08 y_47_19 + aPZ_47_19 <= 0
 R50: - 6.36942215e+08 y_197_28 + aPZ_197_28 <= 0
 R51: - 6.36942215e+08 y_197_19 + aPZ_197_19 <= 0
 R52: - 24000 x_1_72 + ort_1_72 <= 0
 R53: - 24000 x_1_199 + ort_1_199 <= 0
 R54: - 24000 x_1_198 + ort_1_198 <= 0
 R55: - 24000 x_1_202 + ort_1_202 <= 0
 R56: - 24000 x_1_47 + ort_1_47 <= 0
 R57: - 24000 x_1_197 + ort_1_197 <= 0
 R58: - aFP_1_72 + 10000 nT_1_72 >= 0
 R59: - aFP_1_199 + 10000 nT_1_199 >= 0
 R60: - aFP_1_198 + 10000 nT_1_198 >= 0
 R61: - aFP_1_202 + 10000 nT_1_202 >= 0
 R62: - aFP_1_47 + 10000 nT_1_47 >= 0
 R63: - aFP_1_197 + 10000 nT_1_197 >= 0
 R64: nT_1_72 + nT_1_199 + nT_1_198 + nT_1_202 + nT_1_47 + nT_1_197 <= 700
 R65: - 24000 nT_1_72 + fFP_1_72 <= 0
 R66: - 24000 nT_1_199 + fFP_1_199 <= 0
 R67: - 24000 nT_1_198 + fFP_1_198 <= 0
 R68: - 24000 nT_1_202 + fFP_1_202 <= 0
 R69: - 24000 nT_1_47 + fFP_1_47 <= 0
 R70: - 24000 nT_1_197 + fFP_1_197 <= 0
 R71: - 1.6666666666666666e-04 aFP_1_72 + ut_1_72 = 0
 R72: - 1.6666666666666666e-04 aFP_1_199 + ut_1_199 = 0
 R73: - 1.6666666666666666e-04 aFP_1_198 + ut_1_198 = 0
 R74: - 1.6666666666666666e-04 aFP_1_202 + ut_1_202 = 0
 R75: - 1.6666666666666666e-04 aFP_1_47 + ut_1_47 = 0
 R76: - 1.6666666666666666e-04 aFP_1_197 + ut_1_197 = 0
 R77: 1.34 x_1_72 - ort_1_72 + opt_1_72 + 0.5 ut_1_72 <= 0
 R78: 0.3133333333333334 x_1_199 - ort_1_199 + opt_1_199 + 0.5 ut_1_199
   <= 0
 R79: 0.14 x_1_198 - ort_1_198 + opt_1_198 + 0.5 ut_1_198 <= 0
 R80: 0.2066666666666667 x_1_202 - ort_1_202 + opt_1_202 + 0.5 ut_1_202
   <= 0
 R81: 0.2133333333333333 x_1_47 - ort_1_47 + opt_1_47 + 0.5 ut_1_47 <= 0
 R82: 0.2666666666666667 x_1_197 - ort_1_197 + opt_1_197 + 0.5 ut_1_197
   <= 0
 R83: - 1.608 y_72_28 - 1.44 y_72_19 + opt_1_72 - ut_1_72 >= 0
 R84: - 0.496 y_199_28 - 0.208 y_199_19 + opt_1_199 - ut_1_199 >= 0
 R85: - 0.304 y_198_28 - 0.072 y_198_19 + opt_1_198 - ut_1_198 >= 0
 R86: - 0.392 y_202_28 - 0.104 y_202_19 + opt_1_202 - ut_1_202 >= 0
 R87: - 0.392 y_47_28 - 0.184 y_47_19 + opt_1_47 - ut_1_47 >= 0
 R88: - 0.368 y_197_28 - 0.392 y_197_19 + opt_1_197 - ut_1_197 >= 0
 R89: - 24000 x_1_72 + opt_1_72 <= 0
 R90: - 24000 x_1_199 + opt_1_199 <= 0
 R91: - 24000 x_1_198 + opt_1_198 <= 0
 R92: - 24000 x_1_202 + opt_1_202 <= 0
 R93: - 24000 x_1_47 + opt_1_47 <= 0
 R94: - 24000 x_1_197 + opt_1_197 <= 0
 qc0: - aPZ_72_28 - 4969.36375 dt_72_28 + [ 4969.36375 y_72_28 * ort_1_72 ]
   = 0
 qc1: - aPZ_72_19 - 7103.395 dt_72_19 + [ 7103.395 y_72_19 * ort_1_72 ]
   = 0
 qc2: - aPZ_199_28 - 4969.36375 dt_199_28 + [
   4969.36375 y_199_28 * ort_1_199 ] = 0
 qc3: - aPZ_199_19 - 7103.395 dt_199_19 + [ 7103.395 y_199_19 * ort_1_199 ]
   = 0
 qc4: - aPZ_198_28 - 4969.36375 dt_198_28 + [
   4969.36375 y_198_28 * ort_1_198 ] = 0
 qc5: - aPZ_198_19 - 7103.395 dt_198_19 + [ 7103.395 y_198_19 * ort_1_198 ]
   = 0
 qc6: - aPZ_202_28 - 4969.36375 dt_202_28 + [
   4969.36375 y_202_28 * ort_1_202 ] = 0
 qc7: - aPZ_202_19 - 7103.395 dt_202_19 + [ 7103.395 y_202_19 * ort_1_202 ]
   = 0
 qc8: - aPZ_47_28 - 4969.36375 dt_47_28 + [ 4969.36375 y_47_28 * ort_1_47 ]
   = 0
 qc9: - aPZ_47_19 - 7103.395 dt_47_19 + [ 7103.395 y_47_19 * ort_1_47 ]
   = 0
 qc10: - aPZ_197_28 - 4969.36375 dt_197_28 + [
   4969.36375 y_197_28 * ort_1_197 ] = 0
 qc11: - aPZ_197_19 - 7103.395 dt_197_19 + [ 7103.395 y_197_19 * ort_1_197
   ] = 0
 qc12: - 1.608 y_72_28 + dt_72_28 + [ - y_72_28 * ut_1_72 ] >= 0
 qc13: - 1.44 y_72_19 + dt_72_19 + [ - y_72_19 * ut_1_72 ] >= 0
 qc14: - 0.496 y_199_28 + dt_199_28 + [ - y_199_28 * ut_1_199 ] >= 0
 qc15: - 0.208 y_199_19 + dt_199_19 + [ - y_199_19 * ut_1_199 ] >= 0
 qc16: - 0.304 y_198_28 + dt_198_28 + [ - y_198_28 * ut_1_198 ] >= 0
 qc17: - 0.072 y_198_19 + dt_198_19 + [ - y_198_19 * ut_1_198 ] >= 0
 qc18: - 0.392 y_202_28 + dt_202_28 + [ - y_202_28 * ut_1_202 ] >= 0
 qc19: - 0.104 y_202_19 + dt_202_19 + [ - y_202_19 * ut_1_202 ] >= 0
 qc20: - 0.392 y_47_28 + dt_47_28 + [ - y_47_28 * ut_1_47 ] >= 0
 qc21: - 0.184 y_47_19 + dt_47_19 + [ - y_47_19 * ut_1_47 ] >= 0
 qc22: - 0.368 y_197_28 + dt_197_28 + [ - y_197_28 * ut_1_197 ] >= 0
 qc23: - 0.392 y_197_19 + dt_197_19 + [ - y_197_19 * ut_1_197 ] >= 0
 qc24: aPZ_72_28 + aPZ_199_28 + aPZ_198_28 + aPZ_202_28 + aPZ_47_28
   + aPZ_197_28 + [ - 4969.36375 y_72_28 * ort_1_72 ] >= 0
 qc25: aPZ_72_19 + aPZ_199_19 + aPZ_198_19 + aPZ_202_19 + aPZ_47_19
   + aPZ_197_19 + [ - 7103.395 y_72_19 * ort_1_72 ] >= 0
 qc26: aPZ_72_28 + aPZ_199_28 + aPZ_198_28 + aPZ_202_28 + aPZ_47_28
   + aPZ_197_28 + [ - 4969.36375 y_199_28 * ort_1_199 ] >= 0
 qc27: aPZ_72_19 + aPZ_199_19 + aPZ_198_19 + aPZ_202_19 + aPZ_47_19
   + aPZ_197_19 + [ - 7103.395 y_199_19 * ort_1_199 ] >= 0
 qc28: aPZ_72_28 + aPZ_199_28 + aPZ_198_28 + aPZ_202_28 + aPZ_47_28
   + aPZ_197_28 + [ - 4969.36375 y_198_28 * ort_1_198 ] >= 0
 qc29: aPZ_72_19 + aPZ_199_19 + aPZ_198_19 + aPZ_202_19 + aPZ_47_19
   + aPZ_197_19 + [ - 7103.395 y_198_19 * ort_1_198 ] >= 0
 qc30: aPZ_72_28 + aPZ_199_28 + aPZ_198_28 + aPZ_202_28 + aPZ_47_28
   + aPZ_197_28 + [ - 4969.36375 y_202_28 * ort_1_202 ] >= 0
 qc31: aPZ_72_19 + aPZ_199_19 + aPZ_198_19 + aPZ_202_19 + aPZ_47_19
   + aPZ_197_19 + [ - 7103.395 y_202_19 * ort_1_202 ] >= 0
 qc32: aPZ_72_28 + aPZ_199_28 + aPZ_198_28 + aPZ_202_28 + aPZ_47_28
   + aPZ_197_28 + [ - 4969.36375 y_47_28 * ort_1_47 ] >= 0
 qc33: aPZ_72_19 + aPZ_199_19 + aPZ_198_19 + aPZ_202_19 + aPZ_47_19
   + aPZ_197_19 + [ - 7103.395 y_47_19 * ort_1_47 ] >= 0
 qc34: aPZ_72_28 + aPZ_199_28 + aPZ_198_28 + aPZ_202_28 + aPZ_47_28
   + aPZ_197_28 + [ - 4969.36375 y_197_28 * ort_1_197 ] >= 0
 qc35: aPZ_72_19 + aPZ_199_19 + aPZ_198_19 + aPZ_202_19 + aPZ_47_19
   + aPZ_197_19 + [ - 7103.395 y_197_19 * ort_1_197 ] >= 0
 qc36: - 240 x_1_72 + [ ort_1_72 * fFP_1_72 ] >= 0
 qc37: - 240 x_1_199 + [ ort_1_199 * fFP_1_199 ] >= 0
 qc38: - 240 x_1_198 + [ ort_1_198 * fFP_1_198 ] >= 0
 qc39: - 240 x_1_202 + [ ort_1_202 * fFP_1_202 ] >= 0
 qc40: - 240 x_1_47 + [ ort_1_47 * fFP_1_47 ] >= 0
 qc41: - 240 x_1_197 + [ ort_1_197 * fFP_1_197 ] >= 0
 qc42: dt_1_72_28 + [ - dt_72_28 * fFP_1_72 ] = 0
 qc43: dt_1_72_19 + [ - dt_72_19 * fFP_1_72 ] = 0
 qc44: dt_1_199_28 + [ - dt_199_28 * fFP_1_199 ] = 0
 qc45: dt_1_199_19 + [ - dt_199_19 * fFP_1_199 ] = 0
 qc46: dt_1_198_28 + [ - dt_198_28 * fFP_1_198 ] = 0
 qc47: dt_1_198_19 + [ - dt_198_19 * fFP_1_198 ] = 0
 qc48: dt_1_202_28 + [ - dt_202_28 * fFP_1_202 ] = 0
 qc49: dt_1_202_19 + [ - dt_202_19 * fFP_1_202 ] = 0
 qc50: dt_1_47_28 + [ - dt_47_28 * fFP_1_47 ] = 0
 qc51: dt_1_47_19 + [ - dt_47_19 * fFP_1_47 ] = 0
 qc52: dt_1_197_28 + [ - dt_197_28 * fFP_1_197 ] = 0
 qc53: dt_1_197_19 + [ - dt_197_19 * fFP_1_197 ] = 0
Bounds
Binaries
 x_1_72 x_1_199 x_1_198 x_1_202 x_1_47 x_1_197 y_72_28 y_72_19 y_199_28
 y_199_19 y_198_28 y_198_19 y_202_28 y_202_19 y_47_28 y_47_19 y_197_28
 y_197_19
Generals
 nT_1_72 nT_1_199 nT_1_198 nT_1_202 nT_1_47 nT_1_197 fFP_1_72 fFP_1_199
 fFP_1_198 fFP_1_202 fFP_1_47 fFP_1_197
End
