FoodBank_SmallCase4.sol
# Solution for model Food_Bank
# Objective value = 4.2646712157962080e+04
x_1_72 0
x_1_199 1
x_1_198 1
x_1_202 1
x_1_47 1
x_1_197 1
y_72_28 0
y_72_19 0
y_199_28 0
y_199_19 1
y_198_28 1
y_198_19 0
y_202_28 0
y_202_19 1
y_47_28 0
y_47_19 1
y_197_28 1
y_197_19 0
aFP_1_72 0
aFP_1_199 9.8809985076092089e+03
aFP_1_198 9857.5765631809
aFP_1_202 5683
aFP_1_47 9.8809985074195320e+03
aFP_1_197 9.6940185187863117e+03
aPZ_72_28 0
aPZ_199_28 0
aPZ_198_28 9857.5765631809
aPZ_202_28 0
aPZ_47_28 0
aPZ_197_28 9.6940185187863117e+03
aPZ_72_19 0
aPZ_199_19 9.8809985076092089e+03
aPZ_198_19 0
aPZ_202_19 5683
aPZ_47_19 9.8809985074195320e+03
aPZ_197_19 0
nT_1_72 1
nT_1_199 1
nT_1_198 1
nT_1_202 1
nT_1_47 1
nT_1_197 1
ort_1_72 0
ort_1_199 3.5820895522388061e+00
ort_1_198 3.9344262295081966e+00
ort_1_202 3.5820895522388061e+00
ort_1_47 3.5820895522242537e+00
ort_1_197 3.9344262295081966e+00
opt_1_72 0
opt_1_199 1.8548330846015346e+00
opt_1_198 1.9469294271968167e+00
opt_1_202 1.0511666666666666e+00
opt_1_47 1.8308330845699219e+00
opt_1_197 1.9836697531310521e+00
dt_72_28 0
dt_72_19 0
dt_199_28 0
dt_199_19 2.1910647665545184e+00
dt_198_28 1.9507564763771446e+00
dt_198_19 0
dt_202_28 0
dt_202_19 2.7820495713709770e+00
dt_47_28 0
dt_47_19 2.1910647665666687e+00
dt_197_28 1.9836697531310523e+00
dt_197_19 0
ut_1_72 0
ut_1_199 1.6468330846015347e+00
ut_1_198 1.6429294271968167e+00
ut_1_202 9.4716666666666660e-01
ut_1_47 1.6468330845699219e+00
ut_1_197 1.6156697531310520e+00
fFP_1_72 0
fFP_1_199 67
fFP_1_198 61
fFP_1_202 67
fFP_1_47 67
fFP_1_197 61
dt_1_72_28 0
dt_1_72_19 0
dt_1_199_28 0
dt_1_199_19 1.4680133935915273e+02
dt_1_198_28 1.1899614505900581e+02
dt_1_198_19 0
dt_1_202_28 0
dt_1_202_19 1.8639732128185545e+02
dt_1_47_28 0
dt_1_47_19 1.4680133935996682e+02
dt_1_197_28 1.2100385494099419e+02
dt_1_197_19 0
